

******************************************************************************
This program contains Ipopt, a library for large-scale nonlinear optimization.
 Ipopt is released as open source code under the Eclipse Public License (EPL).
         For more information visit http://projects.coin-or.org/Ipopt
******************************************************************************

This is Ipopt version 3.12.8, running with linear solver mumps.
NOTE: Other linear solvers might be more efficient (see Ipopt documentation).

Number of nonzeros in equality constraint Jacobian...:        0
Number of nonzeros in inequality constraint Jacobian.:        0
Number of nonzeros in Lagrangian Hessian.............:       21

Total number of variables............................:        6
                     variables with only lower bounds:        2
                variables with lower and upper bounds:        0
                     variables with only upper bounds:        0
Total number of equality constraints.................:        0
Total number of inequality constraints...............:        0
        inequality constraints with only lower bounds:        0
   inequality constraints with lower and upper bounds:        0
        inequality constraints with only upper bounds:        0

iter    objective    inf_pr   inf_du lg(mu)  ||d||  lg(rg) alpha_du alpha_pr  ls
   0  1.0120514e+04 0.00e+00 1.00e+02  -1.0 0.00e+00    -  0.00e+00 0.00e+00   0
   1  1.0294517e+02 0.00e+00 3.85e+00  -1.0 3.86e+00   0.0 9.25e-01 1.00e+00f  1
   2  6.9988594e+00 0.00e+00 6.35e-02  -1.0 2.52e+01    -  7.46e-01 1.00e+00f  1
   3  6.9631045e+00 0.00e+00 2.37e-02  -2.5 1.82e+00    -  8.05e-01 1.00e+00f  1
   4  6.9533866e+00 0.00e+00 5.20e-03  -3.8 1.56e-02  -0.5 1.00e+00 1.00e+00f  1
   5  6.9516630e+00 0.00e+00 1.07e-03  -3.8 9.83e-03  -1.0 1.00e+00 1.00e+00f  1
   6  6.9510391e+00 0.00e+00 6.36e-04  -5.7 1.76e-02  -1.4 1.00e+00 1.00e+00f  1
   7  6.9497036e+00 0.00e+00 5.11e-04  -5.7 4.78e-02  -1.9 1.00e+00 1.00e+00f  1
   8  6.9444709e+00 0.00e+00 2.65e-03  -5.7 1.67e-01  -2.4 1.00e+00 1.00e+00f  1
   9  6.9331951e+00 0.00e+00 1.51e-02  -5.7 7.74e-01  -2.9 1.00e+00 5.00e-01f  2
iter    objective    inf_pr   inf_du lg(mu)  ||d||  lg(rg) alpha_du alpha_pr  ls
  10  6.9079353e+00 0.00e+00 3.41e-03  -5.7 1.85e-01  -2.4 1.00e+00 1.00e+00f  1
  11  6.8890550e+00 0.00e+00 5.35e-03  -5.7 1.61e-01  -2.0 1.00e+00 1.00e+00f  1
  12  6.8500595e+00 0.00e+00 4.11e-02  -5.7 8.08e-01  -2.5 1.00e+00 5.00e-01f  2
  13  6.7217667e+00 0.00e+00 6.32e-03  -5.7 3.57e-01  -2.1 1.00e+00 1.00e+00f  1
  14  6.6342737e+00 0.00e+00 2.05e-02  -5.7 1.91e-01  -1.6 1.00e+00 1.00e+00f  1
  15  6.2002346e+00 0.00e+00 9.82e-02  -5.7 1.79e+00  -2.1 1.00e+00 5.00e-01f  2
  16  5.4528881e+00 0.00e+00 2.74e-01  -5.7 3.06e+00  -1.7 1.00e+00 2.75e-01f  2
  17  4.9817621e+00 0.00e+00 5.90e-01  -5.7 1.56e+00  -1.3 1.00e+00 1.98e-01f  2
  18  4.2855545e+00 0.00e+00 7.53e-01  -5.7 2.87e-01  -0.8 1.00e+00 1.00e+00f  1
  19  3.7021663e+00 0.00e+00 5.30e+00  -5.7 4.15e+01    -  1.00e+00 4.90e-02f  2
iter    objective    inf_pr   inf_du lg(mu)  ||d||  lg(rg) alpha_du alpha_pr  ls
  20  2.8506448e+00 0.00e+00 9.20e-01  -5.7 2.42e+00  -1.3 1.00e+00 1.84e-01f  2
  21  1.5591072e+00 0.00e+00 4.45e+00  -5.7 6.95e+00    -  4.47e-01 1.00e+00f  1
  22  1.1312260e+00 0.00e+00 2.17e+00  -5.7 2.88e+00    -  1.00e+00 2.50e-01f  3
  23  5.9775653e-01 0.00e+00 5.51e-02  -5.7 1.55e+00    -  1.00e+00 1.00e+00f  1
  24  5.5798735e-01 0.00e+00 2.03e+00  -5.7 2.48e+00    -  1.00e+00 1.00e+00f  1
  25  3.3359184e-01 0.00e+00 2.02e-01  -5.7 2.90e-01    -  1.00e+00 1.00e+00f  1
  26  2.7363932e-01 0.00e+00 8.99e-01  -5.7 3.11e+00    -  1.00e+00 5.00e-01f  2
  27  2.0021963e-01 0.00e+00 1.25e-01  -5.7 1.78e-01    -  1.00e+00 1.00e+00f  1
  28  1.8634046e-01 0.00e+00 9.06e-01  -5.7 1.53e+00    -  1.00e+00 1.00e+00f  1
  29  1.3285434e-01 0.00e+00 2.08e-02  -5.7 2.44e-01    -  1.00e+00 1.00e+00f  1
iter    objective    inf_pr   inf_du lg(mu)  ||d||  lg(rg) alpha_du alpha_pr  ls
  30  1.1735501e-01 0.00e+00 3.41e-01  -5.7 1.78e+00    -  1.00e+00 5.00e-01f  2
  31  1.0187725e-01 0.00e+00 1.06e-01  -5.7 4.37e-01    -  1.00e+00 1.00e+00f  1
  32  9.4644809e-02 0.00e+00 3.46e-01  -5.7 9.20e-01    -  1.00e+00 1.00e+00f  1
  33  8.4948573e-02 0.00e+00 3.66e-02  -5.7 2.73e-01    -  1.00e+00 1.00e+00f  1
  34  8.1331455e-02 0.00e+00 1.23e-01  -5.7 1.01e+00    -  1.00e+00 5.00e-01f  2
  35  7.8026601e-02 0.00e+00 8.18e-02  -5.7 4.35e-01    -  1.00e+00 1.00e+00f  1
  36  7.6047880e-02 0.00e+00 7.95e-02  -5.7 4.36e-01    -  1.00e+00 1.00e+00f  1
  37  7.4873402e-02 0.00e+00 4.02e-02  -5.7 3.08e-01    -  1.00e+00 1.00e+00f  1
  38  7.4315789e-02 0.00e+00 4.04e-02  -5.7 3.13e-01    -  1.00e+00 1.00e+00f  1
  39  7.4077375e-02 0.00e+00 1.22e-02  -5.7 1.70e-01    -  1.00e+00 1.00e+00f  1
iter    objective    inf_pr   inf_du lg(mu)  ||d||  lg(rg) alpha_du alpha_pr  ls
  40  7.4017148e-02 0.00e+00 8.38e-03  -5.7 1.43e-01    -  1.00e+00 1.00e+00f  1
  41  7.4009774e-02 0.00e+00 7.44e-04  -5.7 4.20e-02    -  1.00e+00 1.00e+00f  1
  42  7.4009731e-02 0.00e+00 3.95e-05  -5.7 9.77e-03    -  1.00e+00 1.00e+00f  1
  43  7.4009734e-02 0.00e+00 1.95e-08  -5.7 2.15e-04    -  1.00e+00 1.00e+00f  1
  44  7.4009698e-02 0.00e+00 9.02e-06  -8.6 4.67e-03    -  1.00e+00 1.00e+00f  1
  45  7.4009698e-02 0.00e+00 6.13e-13  -8.6 1.39e-06    -  1.00e+00 1.00e+00f  1

Number of Iterations....: 45

                                   (scaled)                 (unscaled)
Objective...............:   1.9272985774537207e-03    7.4009697955249060e-02
Dual infeasibility......:   6.1279668360309648e-13    2.3531848148490910e-11
Constraint violation....:   0.0000000000000000e+00    0.0000000000000000e+00
Complementarity.........:   2.5059034892855805e-09    9.6228556652625821e-08
Overall NLP error.......:   2.5059034892855805e-09    9.6228556652625821e-08


Number of objective function evaluations             = 102
Number of objective gradient evaluations             = 46
Number of equality constraint evaluations            = 0
Number of inequality constraint evaluations          = 0
Number of equality constraint Jacobian evaluations   = 0
Number of inequality constraint Jacobian evaluations = 0
Number of Lagrangian Hessian evaluations             = 45
Total CPU secs in IPOPT (w/o function evaluations)   =      0.014
Total CPU secs in NLP function evaluations           =      0.001

EXIT: Optimal Solution Found.
 
Ipopt 3.12.8: Optimal Solution Found
